1616103
28,24,29,40,5,63,10,65,25,54,45,33,6,66,37,42,21,30,13,51,32,56,17,9,43,27,49,52,36,61,38,50,34,67,16,26,44,64,19,3,47,1,8,57,14,7,35,58,15,62,20,2,60,23,46,12,53,0,11,41,31,55,39,4,18,48,22,59
